AME : levi30_27
COMMENT : 30: 40x18 -city problem (levikoppenhol)
TYPE : TSP
DIMENSION : 30
EDGE_WEIGHT_TYPE : EUC_2D
NODE_COORD_SECTION
1 2 10
2 3 31
3 10 23
4 2 27
5 18 5
6 18 10
7 17 29
8 8 12
9 7 8
10 0 6
11 4 27
12 8 39
13 13 10
14 12 12
15 18 2
16 9 4
17 12 40
18 6 2
19 18 6
20 18 2
21 15 23
22 12 27
23 11 28
24 0 8
25 0 24
26 11 6
27 6 20
28 18 23
29 14 19
30 9 2
EOF